c 
c G(k,n,p) graph
c graph gen seed     : 4655
c number of vertices : 80
c max number of edges: 1600
c number of classes  : 2
c edge density       : 0.100000
c edge probability   : 0.200000
c data structure     : sparse
c
c           Graph Stats
c number of vertices  : 80
c nonisolated vertices: 80
c number of edges     : 337
c edge density        : 0.106646
c max degree          : 15
c avg degree          : 8.43
c min degree          : 2
p col 80 337
e 1 76
e 1 66
e 1 57
e 1 44
e 1 15
e 2 70
e 2 57
e 2 50
e 2 48
e 2 11
e 3 80
e 3 77
e 3 74
e 3 54
e 3 51
e 3 46
e 3 24
e 3 4
e 4 58
e 4 48
e 4 47
e 4 18
e 4 15
e 5 75
e 5 70
e 5 59
e 5 58
e 5 50
e 5 11
e 6 75
e 6 64
e 6 61
e 6 55
e 6 50
e 6 44
e 6 40
e 6 37
e 6 35
e 6 23
e 6 17
e 6 14
e 7 60
e 7 57
e 7 55
e 7 44
e 7 37
e 8 66
e 8 64
e 8 55
e 8 50
e 8 43
e 8 40
e 8 23
e 8 21
e 9 67
e 9 34
e 10 79
e 10 77
e 10 74
e 10 69
e 10 67
e 10 56
e 10 46
e 10 38
e 10 36
e 11 78
e 11 72
e 11 69
e 11 62
e 11 49
e 11 36
e 11 25
e 11 24
e 12 61
e 12 60
e 12 58
e 12 42
e 12 27
e 13 76
e 13 70
e 13 66
e 13 65
e 13 61
e 13 60
e 13 58
e 13 50
e 13 43
e 13 27
e 13 18
e 13 17
e 14 74
e 14 51
e 14 39
e 14 36
e 14 30
e 15 72
e 15 71
e 15 69
e 15 56
e 15 53
e 15 52
e 15 51
e 15 24
e 15 22
e 16 78
e 16 74
e 16 72
e 16 71
e 16 69
e 16 63
e 16 54
e 16 53
e 16 39
e 16 36
e 16 32
e 16 30
e 16 25
e 17 78
e 17 54
e 17 52
e 17 46
e 17 36
e 17 29
e 17 26
e 18 72
e 18 56
e 18 54
e 18 53
e 18 41
e 18 30
e 18 29
e 18 28
e 18 25
e 19 80
e 19 78
e 19 69
e 19 67
e 19 56
e 19 52
e 19 30
e 19 25
e 20 66
e 20 58
e 20 55
e 20 50
e 20 48
e 20 35
e 21 79
e 21 78
e 21 69
e 21 52
e 21 49
e 21 31
e 21 29
e 22 68
e 22 60
e 22 59
e 22 57
e 22 55
e 23 80
e 23 67
e 23 54
e 23 36
e 24 64
e 24 55
e 24 48
e 24 27
e 25 73
e 25 48
e 25 44
e 25 42
e 26 68
e 26 64
e 26 59
e 26 58
e 26 47
e 26 45
e 26 42
e 26 35
e 26 33
e 27 79
e 27 74
e 27 72
e 27 69
e 27 62
e 27 56
e 27 32
e 28 60
e 28 48
e 28 45
e 28 42
e 29 60
e 29 55
e 29 44
e 29 37
e 29 35
e 30 75
e 30 70
e 30 59
e 30 45
e 30 44
e 30 33
e 31 68
e 31 65
e 31 43
e 31 37
e 31 35
e 32 73
e 32 66
e 32 47
e 32 45
e 33 71
e 33 53
e 33 51
e 33 39
e 34 50
e 34 47
e 34 37
e 34 35
e 35 80
e 35 79
e 35 63
e 35 53
e 35 49
e 35 38
e 35 36
e 36 75
e 36 66
e 36 64
e 36 50
e 36 45
e 36 42
e 37 78
e 37 77
e 37 54
e 37 51
e 37 39
e 38 76
e 38 61
e 38 48
e 38 45
e 38 40
e 39 70
e 39 66
e 39 61
e 39 59
e 39 50
e 39 47
e 40 53
e 41 75
e 41 64
e 41 42
e 42 80
e 42 67
e 42 53
e 42 46
e 43 79
e 44 78
e 44 69
e 44 49
e 45 77
e 45 53
e 45 49
e 46 68
e 46 55
e 46 48
e 47 74
e 47 71
e 47 63
e 47 62
e 47 54
e 47 52
e 47 51
e 48 72
e 48 56
e 49 73
e 49 59
e 49 58
e 49 57
e 50 79
e 50 77
e 50 72
e 50 69
e 50 54
e 50 51
e 51 75
e 51 65
e 51 59
e 52 58
e 53 75
e 53 68
e 53 65
e 53 64
e 53 59
e 54 76
e 54 61
e 55 63
e 56 64
e 56 60
e 57 78
e 57 77
e 57 62
e 58 74
e 58 67
e 58 63
e 59 79
e 60 80
e 60 63
e 60 62
e 61 79
e 61 67
e 61 63
e 62 76
e 62 75
e 62 73
e 62 68
e 62 66
e 63 76
e 63 75
e 63 66
e 63 64
e 64 77
e 64 74
e 64 67
e 65 71
e 66 77
e 67 76
e 68 79
e 68 78
e 68 77
e 68 72
e 69 75
e 69 70
e 70 79
e 70 71
e 71 73
e 73 74
